/* Problème 2.1 */

/* Objective function */
min: +z1 +z2;

/* Constraints */
-0.93584545476 y1 +0.783362700811 y2 <= 0.632202377859;
+0.538944738087 y1 +0.103361407644 y2 <= 0.787874932288;
-0.870279595713 y1 +0.514055253096 y2 <= 0.378548607763;
+0.355081456059 y1 +0.623213766611 y2 <= 0.504064773748;
+0.293085230013 y1 +0.825401266876 y2 <= 0.437626727249;
-0.986611277425 y1 +0.768534565189 y2 <= 0.162170866859;
+0.182827898648 y1 +0.107979996353 y2 <= 0.0821429399993;
-y1 +z1 >= -0.194763315443;
+y1 +z1 >= 0.194763315443;
-y2 +z2 >= -0.461041788299;
+y2 +z2 >= 0.461041788299;
